# Solution for model micodag
# Objective value = 1.9773949328058496e+01
s_0_1 0
s_1_0 0
s_0_2 0
s_2_0 2.6844647984276238e-01
s_1_2 0
s_2_1 2.5309618565618974e-01
s_1_3 0
s_3_1 3.4282124658394464e-01
s_1_9 0
s_9_1 0
s_1_12 0
s_12_1 6.1757224766777075e-01
s_1_13 0
s_13_1 3.1635911782796944e-01
s_2_3 0
s_3_2 2.1261122023072332e-01
s_2_4 0
s_4_2 3.5812292695166148e-01
s_2_6 0
s_6_2 0
s_2_8 0
s_8_2 2.2899217245696768e-01
s_3_4 0
s_4_3 5.5116653388948356e-01
s_3_6 0
s_6_3 0
s_3_7 0
s_7_3 0
s_3_8 0
s_8_3 4.4049706845643266e-01
s_3_9 0
s_9_3 3.0425727607088282e-01
s_3_12 0
s_12_3 0
s_3_13 0
s_13_3 4.9492304117172692e-01
s_4_5 0
s_5_4 0
s_4_6 0
s_6_4 3.8335746090671075e-01
s_4_7 0
s_7_4 0
s_4_8 0
s_8_4 0
s_4_11 0
s_11_4 3.5034156634741143e-01
s_5_6 0
s_6_5 6.3714987793498334e-01
s_5_7 0
s_7_5 5.2510274404992963e-01
s_5_14 0
s_14_5 4.7247503425935156e-01
s_6_8 0
s_8_6 5.2201783187904294e-01
s_7_8 0
s_8_7 0
s_7_9 0
s_9_7 2.7897547533875180e+00
s_7_10 0
s_10_7 2.7897547533875180e+00
s_7_11 0
s_11_7 2.7897547533875180e+00
s_8_11 0
s_11_8 1.7877605022057885e-01
s_9_12 0
s_12_9 3.1734673782563716e-01
s_12_13 0
s_13_12 2.8326095581948474e-01
s_0_0 9.7875915059038410e-01
s_1_1 6.5418053954302868e-01
s_2_2 6.8030516347506831e-01
s_3_3 7.3779377318453410e-01
s_4_4 9.1444525540795940e-01
s_5_5 6.4274479326299261e-01
s_6_6 9.5232288357011941e-01
s_7_7 2.7897547533875180e+00
s_8_8 7.4294961467283693e-01
s_9_9 9.2635248240731527e-01
s_10_10 7.2770917586367823e-01
s_11_11 6.1761339464168685e-01
s_12_12 9.4258674094606709e-01
s_13_13 7.4810476869587772e-01
s_14_14 1.0648998564109351e+00
Gamma_0_0 9.8932257155610481e-01
Gamma_0_1 0
Gamma_0_2 0
Gamma_0_3 0
Gamma_0_4 0
Gamma_0_5 0
Gamma_0_6 0
Gamma_0_7 0
Gamma_0_8 0
Gamma_0_9 0
Gamma_0_10 0
Gamma_0_11 0
Gamma_0_12 0
Gamma_0_13 0
Gamma_0_14 0
Gamma_1_0 0
Gamma_1_1 8.0881428000686839e-01
Gamma_1_2 0
Gamma_1_3 0
Gamma_1_4 0
Gamma_1_5 0
Gamma_1_6 0
Gamma_1_7 0
Gamma_1_8 0
Gamma_1_9 0
Gamma_1_10 0
Gamma_1_11 0
Gamma_1_12 0
Gamma_1_13 0
Gamma_1_14 0
Gamma_2_0 -5.1811821029834770e-01
Gamma_2_1 -5.0308665819736287e-01
Gamma_2_2 8.2480613690434468e-01
Gamma_2_3 0
Gamma_2_4 0
Gamma_2_5 0
Gamma_2_6 0
Gamma_2_7 0
Gamma_2_8 0
Gamma_2_9 0
Gamma_2_10 0
Gamma_2_11 0
Gamma_2_12 0
Gamma_2_13 0
Gamma_2_14 0
Gamma_3_0 0
Gamma_3_1 5.8550939068809549e-01
Gamma_3_2 4.6109784236181783e-01
Gamma_3_3 8.5894922619706349e-01
Gamma_3_4 0
Gamma_3_5 0
Gamma_3_6 0
Gamma_3_7 0
Gamma_3_8 0
Gamma_3_9 0
Gamma_3_10 0
Gamma_3_11 0
Gamma_3_12 0
Gamma_3_13 0
Gamma_3_14 0
Gamma_4_0 0
Gamma_4_1 0
Gamma_4_2 5.9843372812004980e-01
Gamma_4_3 7.4240590911541349e-01
Gamma_4_4 9.5626630987814254e-01
Gamma_4_5 0
Gamma_4_6 0
Gamma_4_7 0
Gamma_4_8 0
Gamma_4_9 0
Gamma_4_10 0
Gamma_4_11 0
Gamma_4_12 0
Gamma_4_13 0
Gamma_4_14 0
Gamma_5_0 0
Gamma_5_1 0
Gamma_5_2 0
Gamma_5_3 0
Gamma_5_4 0
Gamma_5_5 8.0171366039440328e-01
Gamma_5_6 0
Gamma_5_7 0
Gamma_5_8 0
Gamma_5_9 0
Gamma_5_10 0
Gamma_5_11 0
Gamma_5_12 0
Gamma_5_13 0
Gamma_5_14 0
Gamma_6_0 0
Gamma_6_1 0
Gamma_6_2 0
Gamma_6_3 0
Gamma_6_4 -6.1915867183357076e-01
Gamma_6_5 0.798216686079027
Gamma_6_6 9.7587032108273453e-01
Gamma_6_7 0
Gamma_6_8 0
Gamma_6_9 0
Gamma_6_10 0
Gamma_6_11 0
Gamma_6_12 0
Gamma_6_13 0
Gamma_6_14 0
Gamma_7_0 0
Gamma_7_1 0
Gamma_7_2 0
Gamma_7_3 0
Gamma_7_4 0
Gamma_7_5 -7.2463973397125414e-01
Gamma_7_6 0
Gamma_7_7 9.7990723034445193e-01
Gamma_7_8 0
Gamma_7_9 0
Gamma_7_10 0
Gamma_7_11 0
Gamma_7_12 0
Gamma_7_13 0
Gamma_7_14 0
Gamma_8_0 0
Gamma_8_1 0
Gamma_8_2 4.7853126591369993e-01
Gamma_8_3 6.6369953175848562e-01
Gamma_8_4 0
Gamma_8_5 0
Gamma_8_6 -7.2250801509674856e-01
Gamma_8_7 0
Gamma_8_8 8.6194525039171555e-01
Gamma_8_9 0
Gamma_8_10 0
Gamma_8_11 0
Gamma_8_12 0
Gamma_8_13 0
Gamma_8_14 0
Gamma_9_0 0
Gamma_9_1 0
Gamma_9_2 0
Gamma_9_3 5.5159521034077463e-01
Gamma_9_4 0
Gamma_9_5 0
Gamma_9_6 0
Gamma_9_7 -5.9158589184014410e-01
Gamma_9_8 0
Gamma_9_9 9.6247206837773491e-01
Gamma_9_10 0
Gamma_9_11 0
Gamma_9_12 0
Gamma_9_13 0
Gamma_9_14 0
Gamma_10_0 0
Gamma_10_1 0
Gamma_10_2 0
Gamma_10_3 0
Gamma_10_4 0
Gamma_10_5 0
Gamma_10_6 0
Gamma_10_7 4.6122061086244004e-01
Gamma_10_8 0
Gamma_10_9 0
Gamma_10_10 8.5305871771155251e-01
Gamma_10_11 0
Gamma_10_12 0
Gamma_10_13 0
Gamma_10_14 0
Gamma_11_0 0
Gamma_11_1 0
Gamma_11_2 0
Gamma_11_3 0
Gamma_11_4 -5.9189658416602786e-01
Gamma_11_5 0
Gamma_11_6 0
Gamma_11_7 0.640776831919086
Gamma_11_8 4.2281916964652766e-01
Gamma_11_9 0
Gamma_11_10 0
Gamma_11_11 7.8588383024572239e-01
Gamma_11_12 0
Gamma_11_13 0
Gamma_11_14 0
Gamma_12_0 0
Gamma_12_1 -7.8585765102069938e-01
Gamma_12_2 0
Gamma_12_3 0
Gamma_12_4 0
Gamma_12_5 0
Gamma_12_6 0
Gamma_12_7 0
Gamma_12_8 0
Gamma_12_9 -5.6333536887509339e-01
Gamma_12_10 0
Gamma_12_11 0
Gamma_12_12 9.7086906477962676e-01
Gamma_12_13 0
Gamma_12_14 0
Gamma_13_0 0
Gamma_13_1 5.6245810317566758e-01
Gamma_13_2 0
Gamma_13_3 0.70350766958984
Gamma_13_4 0
Gamma_13_5 0
Gamma_13_6 0
Gamma_13_7 0
Gamma_13_8 0
Gamma_13_9 0
Gamma_13_10 0
Gamma_13_11 0
Gamma_13_12 0.532222656244062
Gamma_13_13 8.6493049934424093e-01
Gamma_13_14 0
Gamma_14_0 0
Gamma_14_1 0
Gamma_14_2 0
Gamma_14_3 0
Gamma_14_4 0
Gamma_14_5 6.8736819409931371e-01
Gamma_14_6 0
Gamma_14_7 0
Gamma_14_8 0
Gamma_14_9 0
Gamma_14_10 0
Gamma_14_11 0
Gamma_14_12 0
Gamma_14_13 0
Gamma_14_14 1.0319398511594244e+00
psi_0 6
psi_1 6
psi_2 5
psi_3 4
psi_4 3
psi_5 4
psi_6 2
psi_7 3
psi_8 1
psi_9 2
psi_10 0
psi_11 0
psi_12 1
psi_13 0
psi_14 0
g_0_0 0
g_0_1 0
g_0_2 0
g_0_3 0
g_0_4 0
g_0_5 0
g_0_6 0
g_0_7 0
g_0_8 0
g_0_9 0
g_0_10 0
g_0_11 0
g_0_12 0
g_0_13 0
g_0_14 0
g_1_0 0
g_1_1 0
g_1_2 0
g_1_3 0
g_1_4 0
g_1_5 0
g_1_6 0
g_1_7 0
g_1_8 0
g_1_9 0
g_1_10 0
g_1_11 0
g_1_12 0
g_1_13 0
g_1_14 0
g_2_0 1
g_2_1 1
g_2_2 0
g_2_3 0
g_2_4 0
g_2_5 0
g_2_6 0
g_2_7 0
g_2_8 0
g_2_9 0
g_2_10 0
g_2_11 0
g_2_12 0
g_2_13 0
g_2_14 0
g_3_0 0
g_3_1 1
g_3_2 1
g_3_3 0
g_3_4 0
g_3_5 0
g_3_6 0
g_3_7 0
g_3_8 0
g_3_9 0
g_3_10 0
g_3_11 0
g_3_12 0
g_3_13 0
g_3_14 0
g_4_0 0
g_4_1 0
g_4_2 1
g_4_3 1
g_4_4 0
g_4_5 0
g_4_6 0
g_4_7 0
g_4_8 0
g_4_9 0
g_4_10 0
g_4_11 0
g_4_12 0
g_4_13 0
g_4_14 0
g_5_0 0
g_5_1 0
g_5_2 0
g_5_3 0
g_5_4 0
g_5_5 0
g_5_6 0
g_5_7 0
g_5_8 0
g_5_9 0
g_5_10 0
g_5_11 0
g_5_12 0
g_5_13 0
g_5_14 0
g_6_0 0
g_6_1 0
g_6_2 0
g_6_3 0
g_6_4 1
g_6_5 1
g_6_6 0
g_6_7 0
g_6_8 0
g_6_9 0
g_6_10 0
g_6_11 0
g_6_12 0
g_6_13 0
g_6_14 0
g_7_0 0
g_7_1 0
g_7_2 0
g_7_3 0
g_7_4 0
g_7_5 1
g_7_6 0
g_7_7 0
g_7_8 0
g_7_9 0
g_7_10 0
g_7_11 0
g_7_12 0
g_7_13 0
g_7_14 0
g_8_0 0
g_8_1 0
g_8_2 1
g_8_3 1
g_8_4 0
g_8_5 0
g_8_6 1
g_8_7 0
g_8_8 0
g_8_9 0
g_8_10 0
g_8_11 0
g_8_12 0
g_8_13 0
g_8_14 0
g_9_0 0
g_9_1 0
g_9_2 0
g_9_3 1
g_9_4 0
g_9_5 0
g_9_6 0
g_9_7 1
g_9_8 0
g_9_9 0
g_9_10 0
g_9_11 0
g_9_12 0
g_9_13 0
g_9_14 0
g_10_0 0
g_10_1 0
g_10_2 0
g_10_3 0
g_10_4 0
g_10_5 0
g_10_6 0
g_10_7 1
g_10_8 0
g_10_9 0
g_10_10 0
g_10_11 0
g_10_12 0
g_10_13 0
g_10_14 0
g_11_0 0
g_11_1 0
g_11_2 0
g_11_3 0
g_11_4 1
g_11_5 0
g_11_6 0
g_11_7 1
g_11_8 1
g_11_9 0
g_11_10 0
g_11_11 0
g_11_12 0
g_11_13 0
g_11_14 0
g_12_0 0
g_12_1 1
g_12_2 0
g_12_3 0
g_12_4 0
g_12_5 0
g_12_6 0
g_12_7 0
g_12_8 0
g_12_9 1
g_12_10 0
g_12_11 0
g_12_12 0
g_12_13 0
g_12_14 0
g_13_0 0
g_13_1 1
g_13_2 0
g_13_3 1
g_13_4 0
g_13_5 0
g_13_6 0
g_13_7 0
g_13_8 0
g_13_9 0
g_13_10 0
g_13_11 0
g_13_12 1
g_13_13 0
g_13_14 0
g_14_0 0
g_14_1 0
g_14_2 0
g_14_3 0
g_14_4 0
g_14_5 1
g_14_6 0
g_14_7 0
g_14_8 0
g_14_9 0
g_14_10 0
g_14_11 0
g_14_12 0
g_14_13 0
g_14_14 0
T_0 -1.0734841229311134e-02
T_1 -2.1218595563689488e-01
T_2 -1.9260690583138246e-01
T_3 -1.5204546678084505e-01
T_4 -4.4718837905127075e-02
T_5 -2.2100376679387360e-01
T_6 -2.4425569139844967e-02
T_7 -2.0297374712160417e-02
T_8 -1.4856352496236339e-01
T_9 -3.8250233108570661e-02
T_10 -1.5892689715203087e-01
T_11 -2.4094629614579458e-01
T_12 -2.9563665530354614e-02
T_13 -1.4510612285720959e-01
T_14 0.031440381600559
